c description: Tseitin formula on , with odd charge
c generator: CNFgen (0.9.0)
c copyright: (C) 2012-2020 Massimo Lauria <massimo.lauria@uniroma1.it>
c url: https://massimolauria.net/cnfgen
c
p cnf 20 130
1 2 3 4 5 6 0
1 2 3 4 -5 -6 0
1 2 3 -4 5 -6 0
1 2 3 -4 -5 6 0
1 2 -3 4 5 -6 0
1 2 -3 4 -5 6 0
1 2 -3 -4 5 6 0
1 2 -3 -4 -5 -6 0
1 -2 3 4 5 -6 0
1 -2 3 4 -5 6 0
1 -2 3 -4 5 6 0
1 -2 3 -4 -5 -6 0
1 -2 -3 4 5 6 0
1 -2 -3 4 -5 -6 0
1 -2 -3 -4 5 -6 0
1 -2 -3 -4 -5 6 0
-1 2 3 4 5 -6 0
-1 2 3 4 -5 6 0
-1 2 3 -4 5 6 0
-1 2 3 -4 -5 -6 0
-1 2 -3 4 5 6 0
-1 2 -3 4 -5 -6 0
-1 2 -3 -4 5 -6 0
-1 2 -3 -4 -5 6 0
-1 -2 3 4 5 6 0
-1 -2 3 4 -5 -6 0
-1 -2 3 -4 5 -6 0
-1 -2 3 -4 -5 6 0
-1 -2 -3 4 5 -6 0
-1 -2 -3 4 -5 6 0
-1 -2 -3 -4 5 6 0
-1 -2 -3 -4 -5 -6 0
1 7 8 9 10 -11 0
1 7 8 9 -10 11 0
1 7 8 -9 10 11 0
1 7 8 -9 -10 -11 0
1 7 -8 9 10 11 0
1 7 -8 9 -10 -11 0
1 7 -8 -9 10 -11 0
1 7 -8 -9 -10 11 0
1 -7 8 9 10 11 0
1 -7 8 9 -10 -11 0
1 -7 8 -9 10 -11 0
1 -7 8 -9 -10 11 0
1 -7 -8 9 10 -11 0
1 -7 -8 9 -10 11 0
1 -7 -8 -9 10 11 0
1 -7 -8 -9 -10 -11 0
-1 7 8 9 10 11 0
-1 7 8 9 -10 -11 0
-1 7 8 -9 10 -11 0
-1 7 8 -9 -10 11 0
-1 7 -8 9 10 -11 0
-1 7 -8 9 -10 11 0
-1 7 -8 -9 10 11 0
-1 7 -8 -9 -10 -11 0
-1 -7 8 9 10 -11 0
-1 -7 8 9 -10 11 0
-1 -7 8 -9 10 11 0
-1 -7 8 -9 -10 -11 0
-1 -7 -8 9 10 11 0
-1 -7 -8 9 -10 -11 0
-1 -7 -8 -9 10 -11 0
-1 -7 -8 -9 -10 11 0
2 7 12 -13 0
2 7 -12 13 0
2 -7 12 13 0
2 -7 -12 -13 0
-2 7 12 13 0
-2 7 -12 -13 0
-2 -7 12 -13 0
-2 -7 -12 13 0
3 8 -14 0
3 -8 14 0
-3 8 14 0
-3 -8 -14 0
4 12 15 -16 0
4 12 -15 16 0
4 -12 15 16 0
4 -12 -15 -16 0
-4 12 15 16 0
-4 12 -15 -16 0
-4 -12 15 -16 0
-4 -12 -15 16 0
5 9 -17 0
5 -9 17 0
-5 9 17 0
-5 -9 -17 0
6 13 -18 0
6 -13 18 0
-6 13 18 0
-6 -13 -18 0
10 15 -19 0
10 -15 19 0
-10 15 19 0
-10 -15 -19 0
14 16 17 18 19 -20 0
14 16 17 18 -19 20 0
14 16 17 -18 19 20 0
14 16 17 -18 -19 -20 0
14 16 -17 18 19 20 0
14 16 -17 18 -19 -20 0
14 16 -17 -18 19 -20 0
14 16 -17 -18 -19 20 0
14 -16 17 18 19 20 0
14 -16 17 18 -19 -20 0
14 -16 17 -18 19 -20 0
14 -16 17 -18 -19 20 0
14 -16 -17 18 19 -20 0
14 -16 -17 18 -19 20 0
14 -16 -17 -18 19 20 0
14 -16 -17 -18 -19 -20 0
-14 16 17 18 19 20 0
-14 16 17 18 -19 -20 0
-14 16 17 -18 19 -20 0
-14 16 17 -18 -19 20 0
-14 16 -17 18 19 -20 0
-14 16 -17 18 -19 20 0
-14 16 -17 -18 19 20 0
-14 16 -17 -18 -19 -20 0
-14 -16 17 18 19 -20 0
-14 -16 17 18 -19 20 0
-14 -16 17 -18 19 20 0
-14 -16 17 -18 -19 -20 0
-14 -16 -17 18 19 20 0
-14 -16 -17 18 -19 -20 0
-14 -16 -17 -18 19 -20 0
-14 -16 -17 -18 -19 20 0
11 -20 0
-11 20 0